
%FILE DATA:	Soccer Computational Problem for MiniZinc Models	%
%AUTHOR:	Jack Wall	%
%CONTACT:  	116397063@umail.ucc.ie			%
%LAST UPDATE:	03/03/2020, 16:38:38						%
%DESCRIPTION: 	77 games played with 33 games left				%


n=11; %number of teams

%Games to play
games=[|9,6|4,3|8,7|1,5|5,3|10,1|1,10|10,6|5,4|4,7|1,6|2,10|6,11|2,8|8,2|3,2|3,6|3,4|11,4|6,3|10,2|1,9|9,4|10,8|10,3|8,5|9,1|7,9|2,1|8,9|5,7|10,5|8,11|];

%Initial points
iPoints=[21,18,17,17,16,14,22,29,20,13,25];

%POSITION CONSTRAINTS
% [|teamID, operator, position|...]
% operators index:
%  1 for =  operator
%  2 for >  operator
%  3 for >= operator
%  4 for <  operator
%  5 for <= operator
positionConstraints=[|8,5,1|1,4,3|3,4,4|11,4,5|2,5,5|];